45 105
65 74
98 12
5 154
35 18
22 127
22 175
53 63
64 34
89 13
37 135
29 133
10 199
51 6
50 5
78 11
58 5
40 74
15 12
96 9
7 26
83 40
21 170
38 14
11 167
48 5
30 55
12 122
59 37
83 24
78 51
39 31
61 7
13 44
1 100
4 84
44 63
10 32
7 69
87 15
76 13
64 42
1 152
30 181
45 102
85 38
3 3
7 29
22 3
6 51
71 27
29 34
10 4
44 60
16 96
73 48
33 31
3 1
58 91
38 3
74 46
56 40
41 10
28 156
2 89
58 23
11 8
43 31
16 68
18 177
9 82
13 163
75 74
17 191
64 20
18 134
45 72
4 60
16 28
34 99
5 171
20 145
17 200
16 58
33 52
57 50
7 172
9 101
22 121
25 34
19 109
39 25
52 33
1 52
24 40
28 193
22 165
21 107
3 31
88 62
